k = 80;
b = 40;
AtomicConstraints =  [|
2, 3|
	2, 4|
	2, 5|
	2, 6|
	2, 7|
	2, 8|
	2, 9|
	2, 10|
	2, 19|
	2, 21|
	2, 22|
	2, 23|
	2, 24|
	2, 25|
	2, 26|
	3, 4|
	3, 5|
	3, 6|
	3, 7|
	3, 8|
	3, 9|
	3, 10|
	3, 21|
	3, 22|
	3, 23|
	3, 24|
	3, 25|
	3, 26|
	4, 5|
	4, 6|
	4, 7|
	4, 8|
	4, 9|
	4, 10|
	4, 22|
	4, 23|
	4, 24|
	4, 25|
	4, 26|
	5, 6|
	5, 7|
	5, 8|
	5, 9|
	5, 10|
	5, 23|
	5, 24|
	5, 25|
	5, 26|
	6, 7|
	6, 8|
	6, 9|
	6, 10|
	6, 23|
	6, 24|
	6, 25|
	6, 26|
	7, 8|
	7, 9|
	7, 10|
	7, 24|
	7, 25|
	7, 26|
	8, 9|
	8, 10|
	8, 24|
	8, 25|
	8, 26|
	9, 10|
	9, 25|
	9, 26|
	10, 26|
	1, 2|
	1, 3|
	1, 4|
	1, 5|
	1, 6|
	1, 7|
	1, 8|
	1, 9|
	1, 10|
	1, 12|
	1, 13|
	1, 14|
	1, 15|
	1, 16|
	1, 17|
	1, 18|
	1, 19|
	1, 20|
	1, 21|
	1, 22|
	1, 23|
	1, 24|
	1, 25|
	1, 26|
	1, 27|
	1, 28|
	1, 29|
	1, 30|
	1, 31|
	11, 2|
	11, 3|
	11, 4|
	11, 5|
	11, 6|
	11, 7|
	11, 8|
	11, 9|
	11, 10|
	11, 12|
	11, 13|
	11, 14|
	11, 15|
	11, 16|
	11, 17|
	11, 18|
	11, 19|
	11, 20|
	11, 21|
	11, 22|
	11, 23|
	11, 24|
	11, 25|
	11, 26|
	11, 27|
	11, 28|
	11, 29|
	11, 30|
	11, 31|
	13, 2|
	13, 3|
	13, 4|
	13, 5|
	13, 6|
	13, 7|
	13, 8|
	13, 9|
	13, 10|
	13, 14|
	13, 15|
	13, 16|
	13, 17|
	13, 18|
	13, 19|
	13, 21|
	13, 22|
	13, 23|
	13, 24|
	13, 25|
	13, 26|
	13, 28|
	13, 29|
	13, 30|
	13, 31|
	14, 2|
	14, 3|
	14, 4|
	14, 5|
	14, 6|
	14, 7|
	14, 8|
	14, 9|
	14, 10|
	14, 15|
	14, 16|
	14, 17|
	14, 18|
	14, 19|
	14, 21|
	14, 22|
	14, 23|
	14, 24|
	14, 25|
	14, 26|
	14, 29|
	14, 30|
	14, 31|
	15, 2|
	15, 3|
	15, 4|
	15, 5|
	15, 6|
	15, 7|
	15, 8|
	15, 9|
	15, 10|
	15, 16|
	15, 17|
	15, 18|
	15, 19|
	15, 21|
	15, 22|
	15, 23|
	15, 24|
	15, 25|
	15, 26|
	15, 30|
	15, 31|
	16, 2|
	16, 3|
	16, 4|
	16, 5|
	16, 6|
	16, 7|
	16, 8|
	16, 9|
	16, 10|
	16, 17|
	16, 18|
	16, 19|
	16, 21|
	16, 22|
	16, 23|
	16, 24|
	16, 25|
	16, 26|
	17, 2|
	17, 3|
	17, 4|
	17, 5|
	17, 6|
	17, 7|
	17, 8|
	17, 9|
	17, 10|
	17, 18|
	17, 19|
	17, 21|
	17, 22|
	17, 23|
	17, 24|
	17, 25|
	17, 26|
	18, 3|
	18, 4|
	18, 5|
	18, 6|
	18, 7|
	18, 8|
	18, 9|
	18, 10|
	18, 19|
	18, 21|
	18, 22|
	18, 23|
	18, 24|
	18, 25|
	18, 26|
	19, 4|
	19, 5|
	19, 6|
	19, 7|
	19, 8|
	19, 9|
	19, 10|
	19, 21|
	19, 22|
	19, 23|
	19, 24|
	19, 25|
	19, 26|
	12, 2|
	12, 3|
	12, 4|
	12, 5|
	12, 6|
	12, 7|
	12, 8|
	12, 9|
	12, 10|
	12, 13|
	12, 14|
	12, 15|
	12, 16|
	12, 17|
	12, 18|
	12, 19|
	12, 20|
	12, 21|
	12, 22|
	12, 23|
	12, 24|
	12, 25|
	12, 26|
	12, 27|
	12, 28|
	12, 29|
	12, 30|
	12, 31|
	21, 5|
	21, 6|
	21, 7|
	21, 8|
	21, 9|
	21, 10|
	21, 22|
	21, 23|
	21, 24|
	21, 25|
	21, 26|
	22, 6|
	22, 7|
	22, 8|
	22, 9|
	22, 10|
	22, 23|
	22, 24|
	22, 25|
	22, 26|
	23, 8|
	23, 9|
	23, 10|
	23, 24|
	23, 25|
	23, 26|
	24, 10|
	24, 25|
	24, 26|
	25, 26|
	20, 2|
	20, 3|
	20, 4|
	20, 5|
	20, 6|
	20, 7|
	20, 8|
	20, 9|
	20, 10|
	20, 13|
	20, 14|
	20, 15|
	20, 16|
	20, 17|
	20, 18|
	20, 19|
	20, 21|
	20, 22|
	20, 23|
	20, 24|
	20, 25|
	20, 26|
	20, 27|
	20, 28|
	20, 29|
	20, 30|
	20, 31|
	27, 2|
	27, 3|
	27, 4|
	27, 5|
	27, 6|
	27, 7|
	27, 8|
	27, 9|
	27, 10|
	27, 14|
	27, 15|
	27, 16|
	27, 17|
	27, 18|
	27, 19|
	27, 21|
	27, 22|
	27, 23|
	27, 24|
	27, 25|
	27, 26|
	27, 28|
	27, 29|
	27, 30|
	27, 31|
	28, 2|
	28, 3|
	28, 4|
	28, 5|
	28, 6|
	28, 7|
	28, 8|
	28, 9|
	28, 10|
	28, 15|
	28, 16|
	28, 17|
	28, 18|
	28, 19|
	28, 21|
	28, 22|
	28, 23|
	28, 24|
	28, 25|
	28, 26|
	28, 29|
	28, 30|
	28, 31|
	29, 2|
	29, 3|
	29, 4|
	29, 5|
	29, 6|
	29, 7|
	29, 8|
	29, 9|
	29, 10|
	29, 16|
	29, 17|
	29, 18|
	29, 19|
	29, 21|
	29, 22|
	29, 23|
	29, 24|
	29, 25|
	29, 26|
	29, 30|
	29, 31|
	30, 2|
	30, 3|
	30, 4|
	30, 5|
	30, 6|
	30, 7|
	30, 8|
	30, 9|
	30, 10|
	30, 16|
	30, 17|
	30, 18|
	30, 19|
	30, 21|
	30, 22|
	30, 23|
	30, 24|
	30, 25|
	30, 26|
	30, 31|
	31, 2|
	31, 3|
	31, 4|
	31, 5|
	31, 6|
	31, 7|
	31, 8|
	31, 9|
	31, 10|
	31, 17|
	31, 18|
	31, 19|
	31, 21|
	31, 22|
	31, 23|
	31, 24|
	31, 25|
	31, 26|
	48, 1|
	48, 2|
	48, 3|
	48, 4|
	48, 5|
	48, 6|
	48, 7|
	48, 9|
	48, 10|
	48, 11|
	48, 13|
	48, 14|
	48, 15|
	48, 16|
	48, 17|
	48, 18|
	48, 19|
	48, 20|
	48, 21|
	48, 22|
	48, 23|
	48, 24|
	48, 25|
	48, 26|
	48, 27|
	48, 28|
	48, 29|
	48, 30|
	48, 31|
	48, 68|
	48, 64|
	48, 65|
	48, 49|
	48, 50|
	48, 53|
	48, 54|
	48, 35|
	48, 36|
	48, 37|
	48, 60|
	48, 67|
	48, 57|
	48, 43|
	48, 44|
	48, 75|
	48, 76|
	48, 77|
	48, 74|
	48, 73|
	48, 58|
	48, 59|
	48, 61|
	48, 42|
	32, 1|
	32, 2|
	32, 3|
	32, 4|
	32, 5|
	32, 6|
	32, 7|
	32, 9|
	32, 10|
	32, 11|
	32, 13|
	32, 14|
	32, 15|
	32, 16|
	32, 17|
	32, 18|
	32, 19|
	32, 20|
	32, 21|
	32, 22|
	32, 23|
	32, 24|
	32, 25|
	32, 26|
	32, 27|
	32, 28|
	32, 29|
	32, 30|
	32, 31|
	32, 48|
	32, 66|
	32, 52|
	32, 68|
	32, 64|
	32, 65|
	32, 49|
	32, 50|
	32, 53|
	32, 54|
	32, 35|
	32, 36|
	32, 37|
	32, 60|
	32, 67|
	32, 57|
	32, 43|
	32, 44|
	32, 75|
	32, 76|
	32, 77|
	32, 74|
	32, 73|
	32, 58|
	32, 59|
	32, 61|
	32, 42|
	32, 45|
	66, 1|
	66, 2|
	66, 3|
	66, 4|
	66, 5|
	66, 6|
	66, 7|
	66, 9|
	66, 10|
	66, 11|
	66, 13|
	66, 14|
	66, 15|
	66, 16|
	66, 17|
	66, 18|
	66, 19|
	66, 20|
	66, 21|
	66, 22|
	66, 23|
	66, 24|
	66, 25|
	66, 27|
	66, 28|
	66, 29|
	66, 30|
	66, 31|
	66, 68|
	66, 64|
	66, 65|
	66, 49|
	66, 50|
	66, 53|
	66, 54|
	66, 35|
	66, 36|
	66, 37|
	66, 60|
	66, 67|
	66, 57|
	66, 43|
	66, 44|
	66, 75|
	66, 76|
	66, 77|
	66, 74|
	66, 73|
	66, 58|
	66, 59|
	66, 61|
	66, 42|
	52, 4|
	52, 7|
	52, 9|
	52, 10|
	52, 11|
	52, 13|
	52, 14|
	52, 15|
	52, 16|
	52, 17|
	52, 18|
	52, 19|
	52, 21|
	52, 22|
	52, 23|
	52, 24|
	52, 25|
	52, 68|
	52, 64|
	52, 65|
	52, 49|
	52, 50|
	52, 53|
	52, 54|
	52, 35|
	52, 36|
	52, 37|
	52, 60|
	52, 67|
	52, 57|
	52, 43|
	52, 44|
	52, 75|
	52, 76|
	52, 77|
	52, 74|
	52, 73|
	52, 58|
	52, 59|
	52, 61|
	52, 42|
	52, 45|
	33, 68|
	33, 64|
	33, 65|
	33, 49|
	33, 50|
	33, 53|
	33, 54|
	33, 35|
	33, 36|
	33, 37|
	33, 60|
	33, 67|
	33, 57|
	33, 43|
	33, 44|
	33, 75|
	33, 76|
	33, 77|
	33, 74|
	33, 73|
	33, 58|
	33, 59|
	33, 61|
	33, 42|
	33, 62|
	33, 47|
	33, 45|
	33, 46|
	34, 68|
	34, 64|
	34, 65|
	34, 49|
	34, 50|
	34, 53|
	34, 54|
	34, 35|
	34, 36|
	34, 37|
	34, 60|
	34, 67|
	34, 57|
	34, 43|
	34, 44|
	34, 75|
	34, 76|
	34, 77|
	34, 74|
	34, 73|
	34, 58|
	34, 59|
	34, 61|
	34, 42|
	34, 62|
	34, 47|
	34, 45|
	34, 46|
	72, 68|
	72, 64|
	72, 65|
	72, 49|
	72, 50|
	72, 53|
	72, 54|
	72, 35|
	72, 36|
	72, 37|
	72, 60|
	72, 67|
	72, 57|
	72, 43|
	72, 44|
	72, 75|
	72, 76|
	72, 77|
	72, 74|
	72, 73|
	72, 58|
	72, 59|
	72, 61|
	72, 42|
	72, 62|
	72, 47|
	72, 63|
	72, 45|
	72, 46|
	53, 68|
	53, 60|
	53, 67|
	54, 68|
	54, 67|
	35, 64|
	36, 64|
	36, 65|
	37, 64|
	37, 65|
	37, 49|
	43, 68|
	43, 64|
	43, 65|
	43, 49|
	43, 50|
	43, 53|
	43, 54|
	43, 35|
	43, 36|
	43, 37|
	43, 67|
	44, 68|
	44, 64|
	44, 65|
	44, 49|
	44, 50|
	44, 54|
	44, 35|
	44, 36|
	44, 37|
	75, 64|
	75, 65|
	75, 49|
	75, 50|
	75, 35|
	75, 36|
	75, 37|
	76, 64|
	76, 65|
	76, 49|
	76, 50|
	76, 35|
	76, 36|
	76, 37|
	77, 64|
	77, 65|
	77, 49|
	77, 50|
	77, 36|
	77, 37|
	74, 64|
	74, 65|
	74, 49|
	74, 50|
	74, 37|
	73, 65|
	73, 49|
	73, 50|
	57, 68|
	57, 64|
	57, 65|
	57, 49|
	57, 50|
	57, 53|
	57, 54|
	57, 35|
	57, 36|
	57, 37|
	57, 60|
	57, 67|
	57, 43|
	57, 42|
	58, 68|
	58, 64|
	58, 65|
	58, 49|
	58, 50|
	58, 53|
	58, 54|
	58, 35|
	58, 36|
	58, 37|
	58, 60|
	58, 67|
	58, 43|
	58, 44|
	58, 42|
	59, 68|
	59, 64|
	59, 65|
	59, 49|
	59, 50|
	59, 53|
	59, 54|
	59, 35|
	59, 36|
	59, 37|
	59, 67|
	59, 43|
	59, 44|
	59, 75|
	59, 42|
	61, 68|
	61, 64|
	61, 65|
	61, 49|
	61, 50|
	61, 54|
	61, 35|
	61, 36|
	61, 37|
	61, 43|
	61, 44|
	61, 75|
	61, 76|
	42, 68|
	42, 64|
	42, 65|
	42, 49|
	42, 50|
	42, 53|
	42, 54|
	42, 35|
	42, 36|
	42, 37|
	42, 60|
	42, 67|
	47, 68|
	47, 64|
	47, 65|
	47, 49|
	47, 50|
	47, 54|
	47, 35|
	47, 36|
	47, 37|
	47, 43|
	47, 44|
	47, 75|
	47, 76|
	47, 77|
	47, 74|
	47, 73|
	47, 58|
	47, 59|
	47, 61|
	47, 42|
	62, 68|
	62, 64|
	62, 65|
	62, 49|
	62, 50|
	62, 53|
	62, 54|
	62, 35|
	62, 36|
	62, 37|
	62, 60|
	62, 67|
	62, 57|
	62, 43|
	62, 44|
	62, 75|
	62, 76|
	62, 77|
	62, 74|
	62, 73|
	62, 58|
	62, 59|
	62, 61|
	62, 42|
	62, 47|
	62, 45|
	62, 46|
	63, 68|
	63, 64|
	63, 65|
	63, 49|
	63, 50|
	63, 54|
	63, 35|
	63, 36|
	63, 37|
	63, 43|
	63, 44|
	63, 75|
	63, 76|
	63, 77|
	63, 74|
	63, 73|
	63, 58|
	63, 59|
	63, 61|
	63, 42|
	63, 47|
	63, 46|
	38, 64|
	38, 65|
	38, 49|
	38, 50|
	38, 35|
	38, 36|
	38, 37|
	38, 43|
	38, 44|
	38, 75|
	38, 76|
	38, 77|
	38, 74|
	38, 73|
	38, 59|
	38, 61|
	38, 47|
	39, 64|
	39, 65|
	39, 49|
	39, 50|
	39, 35|
	39, 36|
	39, 37|
	39, 75|
	39, 76|
	39, 77|
	39, 74|
	39, 73|
	40, 64|
	40, 65|
	40, 49|
	40, 50|
	40, 36|
	40, 37|
	40, 76|
	40, 77|
	40, 74|
	40, 73|
	45, 68|
	45, 64|
	45, 65|
	45, 49|
	45, 50|
	45, 53|
	45, 54|
	45, 35|
	45, 36|
	45, 37|
	45, 60|
	45, 67|
	45, 57|
	45, 43|
	45, 44|
	45, 75|
	45, 76|
	45, 77|
	45, 74|
	45, 73|
	45, 58|
	45, 59|
	45, 61|
	45, 42|
	46, 68|
	46, 64|
	46, 65|
	46, 49|
	46, 50|
	46, 53|
	46, 54|
	46, 35|
	46, 36|
	46, 37|
	46, 67|
	46, 57|
	46, 43|
	46, 44|
	46, 75|
	46, 76|
	46, 77|
	46, 74|
	46, 73|
	46, 58|
	46, 59|
	46, 61|
	46, 42|
	71, 68|
	71, 64|
	71, 65|
	71, 49|
	71, 50|
	71, 54|
	71, 35|
	71, 36|
	71, 37|
	71, 43|
	71, 44|
	71, 75|
	71, 76|
	71, 77|
	71, 74|
	71, 73|
	71, 59|
	71, 61|
	71, 47|
	71, 63|
	71, 38|
	71, 39|
	71, 40|
	71, 46|
	79, 64|
	79, 65|
	79, 49|
	79, 50|
	79, 35|
	79, 36|
	79, 37|
	79, 75|
	79, 76|
	79, 77|
	79, 74|
	79, 73|
	79, 38|
	79, 39|
	79, 40|
	80, 64|
	80, 65|
	80, 49|
	80, 50|
	80, 35|
	80, 36|
	80, 37|
	80, 75|
	80, 76|
	80, 77|
	80, 74|
	80, 73|
	80, 39|
	80, 40|
	51, 49|
	51, 50|
	51, 37|
	51, 77|
	51, 74|
	51, 73|
	51, 40|
	41, 50|
	41, 73|
	55, 68|
	55, 64|
	55, 65|
	55, 49|
	55, 50|
	55, 53|
	55, 54|
	55, 35|
	55, 36|
	55, 37|
	55, 60|
	55, 67|
	55, 57|
	55, 43|
	55, 44|
	55, 75|
	55, 76|
	55, 77|
	55, 74|
	55, 73|
	55, 58|
	55, 59|
	55, 61|
	55, 42|
	55, 62|
	55, 47|
	55, 63|
	55, 38|
	55, 39|
	55, 40|
	55, 45|
	55, 46|
	55, 71|
	55, 69|
	55, 70|
	56, 68|
	56, 64|
	56, 65|
	56, 49|
	56, 50|
	56, 54|
	56, 35|
	56, 36|
	56, 37|
	56, 43|
	56, 44|
	56, 75|
	56, 76|
	56, 77|
	56, 74|
	56, 73|
	56, 59|
	56, 61|
	56, 47|
	56, 63|
	56, 38|
	56, 39|
	56, 40|
	56, 46|
	56, 71|
	56, 79|
	56, 70|
	78, 64|
	78, 65|
	78, 49|
	78, 50|
	78, 35|
	78, 36|
	78, 37|
	78, 75|
	78, 76|
	78, 77|
	78, 74|
	78, 73|
	78, 38|
	78, 39|
	78, 40|
	78, 79|
	78, 80|
	69, 68|
	69, 64|
	69, 65|
	69, 49|
	69, 50|
	69, 53|
	69, 54|
	69, 35|
	69, 36|
	69, 37|
	69, 60|
	69, 67|
	69, 57|
	69, 43|
	69, 44|
	69, 75|
	69, 76|
	69, 77|
	69, 74|
	69, 73|
	69, 58|
	69, 59|
	69, 61|
	69, 42|
	69, 62|
	69, 47|
	69, 63|
	69, 38|
	69, 39|
	69, 40|
	69, 45|
	69, 46|
	70, 68|
	70, 64|
	70, 65|
	70, 49|
	70, 50|
	70, 53|
	70, 54|
	70, 35|
	70, 36|
	70, 37|
	70, 67|
	70, 43|
	70, 44|
	70, 75|
	70, 76|
	70, 77|
	70, 74|
	70, 73|
	70, 58|
	70, 59|
	70, 61|
	70, 42|
	70, 62|
	70, 47|
	70, 63|
	70, 38|
	70, 39|
	70, 40|
	70, 45|
	70, 46|];
DisjunctiveConstraints =  [|2, 8, 2, 48|
	2, 49, 2, 9|
	2, 50, 2, 10|
	3, 49, 3, 9|
	3, 50, 3, 10|
	4, 50, 4, 10|
	1, 3, 1, 43|
	1, 4, 1, 44|
	1, 5, 1, 45|
	1, 6, 1, 46|
	1, 7, 1, 47|
	1, 8, 1, 48|
	1, 29, 1, 69|
	1, 30, 1, 70|
	1, 31, 1, 71|
	1, 49, 1, 9|
	1, 42, 1, 2|
	11, 5, 11, 45|
	11, 6, 11, 46|
	11, 7, 11, 47|
	11, 15, 11, 55|
	11, 16, 11, 56|
	11, 17, 11, 57|
	11, 18, 11, 58|
	11, 19, 11, 59|
	11, 21, 11, 61|
	11, 22, 11, 62|
	11, 23, 11, 63|
	11, 26, 11, 66|
	11, 20, 60, 11|
	11, 27, 67, 11|
	11, 28, 68, 11|
	11, 29, 69, 11|
	11, 30, 70, 11|
	11, 31, 71, 11|
	11, 64, 11, 24|
	11, 65, 11, 25|
	11, 49, 11, 9|
	11, 50, 11, 10|
	13, 2, 42, 13|
	13, 3, 43, 13|
	13, 4, 44, 13|
	13, 5, 45, 13|
	13, 8, 48, 13|
	13, 18, 13, 58|
	13, 19, 13, 59|
	13, 21, 13, 61|
	13, 22, 13, 62|
	13, 23, 13, 63|
	13, 26, 13, 66|
	13, 30, 70, 13|
	13, 31, 71, 13|
	13, 64, 13, 24|
	13, 65, 13, 25|
	13, 49, 13, 9|
	13, 50, 13, 10|
	14, 2, 42, 14|
	14, 3, 43, 14|
	14, 4, 44, 14|
	14, 5, 45, 14|
	14, 8, 48, 14|
	14, 19, 14, 59|
	14, 21, 14, 61|
	14, 22, 14, 62|
	14, 23, 14, 63|
	14, 26, 14, 66|
	14, 31, 71, 14|
	14, 64, 14, 24|
	14, 65, 14, 25|
	14, 50, 14, 10|
	15, 2, 42, 15|
	15, 3, 43, 15|
	15, 4, 44, 15|
	15, 5, 45, 15|
	15, 6, 46, 15|
	15, 8, 48, 15|
	15, 21, 15, 61|
	15, 22, 15, 62|
	15, 23, 15, 63|
	15, 26, 15, 66|
	15, 64, 15, 24|
	15, 65, 15, 25|
	16, 3, 43, 16|
	16, 4, 44, 16|
	16, 5, 45, 16|
	16, 6, 46, 16|
	16, 7, 47, 16|
	16, 8, 48, 16|
	16, 23, 16, 63|
	16, 26, 16, 66|
	16, 64, 16, 24|
	16, 65, 16, 25|
	17, 4, 44, 17|
	17, 5, 45, 17|
	17, 6, 46, 17|
	17, 7, 47, 17|
	17, 8, 48, 17|
	17, 23, 17, 63|
	17, 26, 17, 66|
	17, 64, 17, 24|
	17, 65, 17, 25|
	18, 5, 45, 18|
	18, 6, 46, 18|
	18, 7, 47, 18|
	18, 8, 48, 18|
	18, 9, 49, 18|
	18, 26, 18, 66|
	18, 64, 18, 24|
	18, 65, 18, 25|
	19, 6, 46, 19|
	19, 7, 47, 19|
	19, 8, 48, 19|
	19, 9, 49, 19|
	19, 10, 50, 19|
	19, 26, 19, 66|
	19, 64, 19, 24|
	19, 65, 19, 25|
	12, 3, 12, 43|
	12, 4, 12, 44|
	12, 5, 12, 45|
	12, 6, 12, 46|
	12, 7, 12, 47|
	12, 8, 12, 48|
	12, 31, 12, 71|
	12, 49, 12, 9|
	12, 50, 12, 10|
	12, 42, 12, 2|
	21, 7, 47, 21|
	21, 8, 48, 21|
	21, 9, 49, 21|
	21, 10, 50, 21|
	21, 26, 21, 66|
	21, 65, 21, 25|
	22, 8, 48, 22|
	22, 9, 49, 22|
	22, 10, 50, 22|
	22, 26, 22, 66|
	23, 10, 50, 23|
	20, 3, 20, 43|
	20, 4, 20, 44|
	20, 5, 20, 45|
	20, 6, 20, 46|
	20, 7, 20, 47|
	20, 8, 20, 48|
	20, 49, 20, 9|
	20, 50, 20, 10|
	20, 42, 20, 2|
	27, 3, 27, 43|
	27, 4, 27, 44|
	27, 5, 27, 45|
	27, 6, 27, 46|
	27, 7, 27, 47|
	27, 8, 27, 48|
	27, 49, 27, 9|
	27, 50, 27, 10|
	27, 42, 27, 2|
	28, 3, 28, 43|
	28, 4, 28, 44|
	28, 5, 28, 45|
	28, 6, 28, 46|
	28, 7, 28, 47|
	28, 8, 28, 48|
	28, 49, 28, 9|
	28, 50, 28, 10|
	29, 4, 29, 44|
	29, 5, 29, 45|
	29, 6, 29, 46|
	29, 7, 29, 47|
	29, 8, 29, 48|
	29, 49, 29, 9|
	29, 50, 29, 10|
	30, 5, 30, 45|
	30, 6, 30, 46|
	30, 7, 30, 47|
	30, 8, 30, 48|
	30, 49, 30, 9|
	30, 50, 30, 10|
	31, 6, 31, 46|
	31, 7, 31, 47|
	31, 8, 31, 48|
	31, 49, 31, 9|
	31, 50, 31, 10|
	48, 3, 48, 43|
	48, 4, 48, 44|
	48, 5, 48, 45|
	48, 6, 48, 46|
	48, 7, 48, 47|
	48, 1, 48, 41|
	48, 26, 48, 66|
	48, 29, 48, 69|
	48, 30, 48, 70|
	48, 31, 48, 71|
	48, 68, 48, 28|
	48, 60, 48, 20|
	48, 67, 48, 27|
	48, 42, 48, 2|
	32, 3, 32, 43|
	32, 4, 32, 44|
	32, 5, 32, 45|
	32, 6, 32, 46|
	32, 7, 32, 47|
	32, 1, 32, 41|
	32, 26, 32, 66|
	32, 29, 32, 69|
	32, 30, 32, 70|
	32, 31, 32, 71|
	32, 68, 32, 28|
	32, 60, 32, 20|
	32, 67, 32, 27|
	32, 42, 32, 2|
	66, 3, 66, 43|
	66, 4, 66, 44|
	66, 6, 66, 46|
	66, 7, 66, 47|
	66, 11, 66, 51|
	66, 15, 66, 55|
	66, 16, 66, 56|
	66, 17, 66, 57|
	66, 18, 66, 58|
	66, 19, 66, 59|
	66, 21, 66, 61|
	66, 22, 66, 62|
	66, 23, 66, 63|
	66, 48, 66, 52|
	66, 49, 66, 9|
	66, 50, 66, 10|
	66, 53, 66, 13|
	66, 54, 66, 14|
	52, 21, 52, 61|
	52, 23, 52, 63|
	52, 66, 52, 33|
	52, 64, 52, 24|
	52, 65, 52, 25|
	33, 1, 41, 33|
	33, 52, 33, 34|
	34, 1, 41, 34|
	34, 11, 51, 34|
	34, 12, 52, 34|
	34, 20, 60, 34|
	34, 27, 67, 34|
	34, 28, 68, 34|
	34, 29, 69, 34|
	34, 30, 70, 34|
	34, 33, 34, 72|
	72, 2, 42, 72|
	72, 3, 43, 72|
	72, 4, 44, 72|
	72, 5, 45, 72|
	72, 6, 46, 72|
	72, 11, 51, 72|
	72, 13, 53, 72|
	72, 14, 54, 72|
	72, 15, 55, 72|
	72, 16, 56, 72|
	72, 28, 68, 72|
	72, 29, 69, 72|
	72, 30, 70, 72|
	72, 31, 71, 72|
	65, 64, 65, 49|
	49, 65, 49, 50|
	54, 53, 54, 35|
	35, 54, 35, 36|
	36, 35, 36, 37|
	67, 60, 67, 68|
	43, 68, 43, 28|
	43, 53, 13, 43|
	43, 54, 43, 14|
	43, 67, 27, 43|
	43, 42, 43, 44|
	44, 68, 28, 44|
	44, 54, 14, 44|
	44, 43, 44, 75|
	75, 44, 75, 76|
	76, 64, 76, 24|
	76, 35, 75, 76|
	76, 75, 76, 77|
	77, 64, 77, 24|
	77, 65, 77, 25|
	77, 36, 76, 77|
	77, 76, 77, 74|
	74, 64, 24, 74|
	74, 65, 74, 25|
	74, 49, 74, 9|
	74, 37, 77, 74|
	74, 77, 74, 73|
	73, 65, 25, 73|
	73, 49, 73, 9|
	73, 50, 73, 10|
	57, 53, 57, 13|
	57, 60, 57, 20|
	57, 67, 57, 27|
	58, 68, 58, 28|
	58, 53, 58, 13|
	58, 54, 58, 14|
	58, 60, 20, 58|
	58, 67, 58, 27|
	58, 57, 58, 59|
	59, 68, 59, 28|
	59, 53, 13, 59|
	59, 54, 59, 14|
	59, 67, 27, 59|
	59, 58, 59, 61|
	61, 68, 28, 61|
	61, 54, 14, 61|
	42, 68, 42, 28|
	42, 53, 42, 13|
	42, 54, 42, 14|
	42, 60, 20, 42|
	42, 67, 42, 27|
	47, 3, 47, 43|
	47, 4, 47, 44|
	47, 19, 47, 59|
	47, 21, 47, 61|
	47, 60, 20, 47|
	47, 58, 18, 47|
	47, 42, 2, 47|
	62, 17, 62, 57|
	62, 18, 62, 58|
	62, 53, 62, 13|
	62, 67, 62, 27|
	62, 42, 62, 2|
	63, 3, 63, 43|
	63, 4, 63, 44|
	63, 19, 63, 59|
	63, 21, 63, 61|
	63, 60, 20, 63|
	63, 58, 18, 63|
	63, 42, 2, 63|
	63, 62, 63, 38|
	38, 4, 38, 44|
	38, 21, 38, 61|
	38, 53, 13, 38|
	38, 67, 27, 38|
	38, 43, 3, 38|
	38, 59, 19, 38|
	38, 63, 38, 39|
	39, 64, 39, 24|
	39, 36, 39, 76|
	39, 75, 35, 39|
	39, 38, 39, 40|
	40, 65, 40, 25|
	40, 35, 75, 40|
	40, 37, 40, 77|
	40, 76, 36, 40|
	40, 74, 40, 34|
	45, 17, 45, 57|
	45, 18, 45, 58|
	45, 53, 45, 13|
	45, 67, 45, 27|
	45, 42, 45, 2|
	46, 3, 46, 43|
	46, 18, 46, 58|
	46, 19, 46, 59|
	46, 68, 46, 28|
	46, 54, 46, 14|
	46, 57, 17, 46|
	46, 42, 46, 2|
	46, 45, 46, 47|
	71, 4, 71, 44|
	71, 7, 71, 47|
	71, 21, 71, 61|
	71, 23, 71, 63|
	71, 57, 17, 71|
	71, 46, 6, 71|
	71, 70, 71, 79|
	79, 64, 79, 24|
	79, 53, 13, 79|
	79, 35, 79, 75|
	79, 67, 27, 79|
	79, 43, 3, 79|
	79, 59, 19, 79|
	79, 38, 78, 79|
	79, 71, 79, 80|
	80, 68, 28, 80|
	80, 64, 80, 24|
	80, 65, 80, 25|
	80, 54, 14, 80|
	80, 36, 80, 76|
	80, 44, 4, 80|
	80, 61, 21, 80|
	80, 39, 80, 79|
	80, 79, 80, 51|
	51, 50, 51, 10|
	51, 35, 75, 51|
	51, 76, 36, 51|
	51, 73, 51, 33|
	51, 40, 80, 51|
	51, 80, 51, 41|
	41, 36, 76, 41|
	41, 37, 77, 41|
	41, 77, 37, 41|
	55, 5, 55, 45|
	55, 6, 55, 46|
	55, 18, 55, 58|
	55, 22, 55, 62|
	55, 68, 55, 28|
	55, 53, 55, 13|
	55, 54, 55, 14|
	55, 67, 55, 27|
	55, 42, 55, 2|
	56, 4, 56, 44|
	56, 7, 56, 47|
	56, 21, 56, 61|
	56, 23, 56, 63|
	56, 57, 17, 56|
	56, 46, 6, 56|
	56, 55, 56, 78|
	78, 64, 78, 24|
	78, 53, 13, 78|
	78, 35, 78, 75|
	78, 67, 27, 78|
	78, 43, 3, 78|
	78, 59, 19, 78|
	69, 5, 69, 45|
	69, 6, 69, 46|
	69, 18, 69, 58|
	69, 22, 69, 62|
	69, 68, 69, 28|
	69, 53, 69, 13|
	69, 54, 69, 14|
	69, 67, 69, 27|
	69, 42, 69, 2|
	70, 3, 70, 43|
	70, 6, 70, 46|
	70, 7, 70, 47|
	70, 19, 70, 59|
	70, 23, 70, 63|
	70, 68, 70, 28|
	70, 54, 70, 14|
	70, 62, 22, 70|
	70, 45, 5, 70|
	70, 69, 70, 71|];
SoftAtomicConstraints =  [|
1, 11|
27, 13|
28, 14|
29, 15|
31, 16|
2, 18|
3, 19|
4, 21|
5, 22|
7, 23|
9, 24|
10, 25|
52, 33|
33, 34|
54, 35|
35, 36|
36, 37|
63, 38|
38, 39|
39, 40|
51, 41|
42, 43|
43, 44|
45, 46|
46, 47|
65, 49|
49, 50|
80, 51|
66, 52|
53, 54|
55, 56|
57, 58|
58, 59|
59, 61|
62, 63|
68, 64|
64, 65|
48, 66|
60, 67|
67, 68|
69, 70|
70, 71|
34, 72|
74, 73|
77, 74|
44, 75|
75, 76|
76, 77|
56, 78|
71, 79|
79, 80|];
DirectSuccessors =  [];
